GLPSOL--GLPK LP/MIP Solver 5.0
Parameter(s) specified in the command line:
 --lp ../modeles/5_54.lp --log 5_54.log
Reading problem data from '../modeles/5_54.lp'...
291 rows, 550 columns, 1905 non-zeros
270 integer variables, all of which are binary
852 lines were read
GLPK Integer Optimizer 5.0
291 rows, 550 columns, 1905 non-zeros
270 integer variables, all of which are binary
Preprocessing...
270 constraint coefficient(s) were reduced
291 rows, 545 columns, 1900 non-zeros
270 integer variables, all of which are binary
Scaling...
 A: min|aij| =  5.487e-03  max|aij| =  4.000e+00  ratio =  7.290e+02
GM: min|aij| =  1.925e-01  max|aij| =  5.196e+00  ratio =  2.700e+01
EQ: min|aij| =  3.704e-02  max|aij| =  1.000e+00  ratio =  2.700e+01
2N: min|aij| =  3.125e-02  max|aij| =  1.653e+00  ratio =  5.290e+01
Constructing initial basis...
Size of triangular part is 291
Solving LP relaxation...
GLPK Simplex Optimizer 5.0
291 rows, 545 columns, 1900 non-zeros
      0: obj =   1.000000000e+01 inf =   2.450e+01 (11)
     44: obj =  -6.228492774e-02 inf =   0.000e+00 (0)
*   147: obj =  -2.235042735e+00 inf =   2.491e-15 (0)
OPTIMAL LP SOLUTION FOUND
Integer optimization begins...
Long-step dual simplex will be used
+   147: mip =     not found yet >=              -inf        (1; 0)
+   160: >>>>>  -2.235042735e+00 >=  -2.235042735e+00   0.0% (14; 0)
+   160: mip =  -2.235042735e+00 >=     tree is empty   0.0% (0; 27)
INTEGER OPTIMAL SOLUTION FOUND
Time used:   0.0 secs
Memory used: 0.8 Mb (865827 bytes)
